
Gurobi 13.0.1 (linux64) logging started Fri Mar 20 16:39:05 2026

Set parameter LogFile to value "logs/100B_3F_deterministic_2026-03-20_16h38m32s.log"
Gurobi Optimizer version 13.0.1 build v13.0.1rc0 (linux64 - "openSUSE Tumbleweed")

CPU model: Intel(R) Core(TM) i7-10610U CPU @ 1.80GHz, instruction set [SSE2|AVX|AVX2]
Thread count: 4 physical cores, 8 logical processors, using up to 8 threads

Non-default parameters:
TimeLimit  3600
SoftMemLimit  13.2

Optimize a model with 71720 rows, 477605 columns and 1507763 nonzeros (Max)
Model fingerprint: 0xfbf5be6f
Model has 447860 linear objective coefficients
Variable types: 15110 continuous, 462495 integer (462495 binary)
Coefficient statistics:
  Matrix range     [8e-05, 2e+04]
  Objective range  [8e+00, 3e+03]
  Bounds range     [1e+00, 1e+05]
  RHS range        [2e-02, 1e+05]

Presolve removed 41349 rows and 19390 columns (presolve time = 5s)...
Presolve removed 41349 rows and 19390 columns (presolve time = 10s)...
Presolve removed 41349 rows and 19390 columns (presolve time = 15s)...
Presolve removed 41349 rows and 19390 columns (presolve time = 20s)...
Presolve removed 41349 rows and 19390 columns (presolve time = 25s)...
Presolve removed 41349 rows and 19390 columns (presolve time = 30s)...
Presolve removed 41349 rows and 19390 columns (presolve time = 35s)...
Presolve removed 41349 rows and 19390 columns (presolve time = 40s)...
Presolve removed 41349 rows and 19390 columns (presolve time = 45s)...
Presolve removed 41349 rows and 19390 columns (presolve time = 50s)...
Presolve removed 41349 rows and 19390 columns (presolve time = 55s)...
Presolve removed 41349 rows and 19390 columns (presolve time = 60s)...
Presolve removed 41349 rows and 19390 columns (presolve time = 65s)...
Presolve removed 41349 rows and 19390 columns (presolve time = 70s)...
Presolve removed 41349 rows and 19390 columns (presolve time = 75s)...
Presolve removed 41349 rows and 19390 columns (presolve time = 80s)...
Presolve removed 41349 rows and 19390 columns (presolve time = 85s)...
Presolve removed 41349 rows and 19390 columns (presolve time = 90s)...
Presolve removed 41349 rows and 19390 columns (presolve time = 95s)...
Presolve removed 41349 rows and 19390 columns (presolve time = 100s)...
Presolve removed 41349 rows and 382894 columns (presolve time = 124s)...
Presolve removed 59613 rows and 382894 columns (presolve time = 125s)...
Presolve removed 59603 rows and 382874 columns
Presolve time: 130.00s
Presolved: 12117 rows, 94731 columns, 315333 nonzeros
Variable types: 7680 continuous, 87051 integer (87051 binary)
Found heuristic solution: objective -4.08738e+08
Found heuristic solution: objective -4.00628e+08
Deterministic concurrent LP optimizer: primal and dual simplex
Showing primal log only...


Root simplex log...

Iteration    Objective       Primal Inf.    Dual Inf.      Time
       0   -8.8875327e+03   5.481433e+02   4.246272e+09    132s
   13118   -6.2624376e+07   0.000000e+00   4.881143e+10    135s
   13927   -2.5462787e+07   0.000000e+00   2.537284e+12    135s
   19613    5.1695681e+07   0.000000e+00   4.500024e+12    140s
Concurrent spin time: 0.88s

Solved with dual simplex

Root simplex log...

Iteration    Objective       Primal Inf.    Dual Inf.      Time
   11701    6.2609511e+07   0.000000e+00   0.000000e+00    141s

Root relaxation: objective 6.260951e+07, 11701 iterations, 9.56 seconds (6.54 work units)

    Nodes    |    Current Node    |     Objective Bounds      |     Work
 Expl Unexpl |  Obj  Depth IntInf | Incumbent    BestBd   Gap | It/Node Time

     0     0 6.2610e+07    0  791 -4.006e+08 6.2610e+07   116%     -  144s
H    0     0                    -2.99314e+08 6.2610e+07   121%     -  147s
H    0     0                    -2.40991e+08 6.2610e+07   126%     -  148s
H    0     0                    -2.13248e+08 6.2610e+07   129%     -  197s
H    0     0                    -2.11975e+08 6.2610e+07   130%     -  202s
H    0     0                    -2.10613e+08 6.2610e+07   130%     -  202s
H    0     0                    -2.09704e+08 6.2610e+07   130%     -  208s
H    0     0                    -2.04262e+08 6.2610e+07   131%     -  209s
H    0     0                    -1.90359e+08 6.2610e+07   133%     -  210s
H    0     0                    -1.87585e+08 6.2610e+07   133%     -  214s
H    0     0                    -1.87566e+08 6.2610e+07   133%     -  215s
H    0     0                    -1.86677e+08 6.2610e+07   134%     -  215s
H    0     0                    -1.83994e+08 6.2610e+07   134%     -  232s
H    0     0                    -1.83993e+08 6.2610e+07   134%     -  232s
H    0     0                    -1.83971e+08 6.2610e+07   134%     -  232s
H    0     0                    -1.83862e+08 6.2610e+07   134%     -  232s
H    0     0                    -1.83862e+08 6.2610e+07   134%     -  232s
H    0     0                    -1.83700e+08 6.1021e+07   133%     -  278s
     0     0 6.1021e+07    0  441 -1.837e+08 6.1021e+07   133%     -  281s
H    0     0                    -1.82971e+08 6.1018e+07   133%     -  571s
H    0     0                    -1.82720e+08 6.1018e+07   133%     -  571s
H    0     0                    -1.82641e+08 6.1018e+07   133%     -  571s
H    0     0                    -1.82272e+08 6.1018e+07   133%     -  571s
H    0     0                    -1.81937e+08 6.1018e+07   134%     -  571s
H    0     0                    -1.81937e+08 6.1018e+07   134%     -  571s
H    0     0                    -1.81937e+08 6.1018e+07   134%     -  571s
     0     0 5.1268e+07    0  439 -1.819e+08 5.1268e+07   128%     -  587s
     0     0 5.1268e+07    0  439 -1.819e+08 5.1268e+07   128%     -  587s
     0     0 5.1268e+07    0  465 -1.819e+08 5.1268e+07   128%     -  634s
H    0     0                    -1.81501e+08 5.1268e+07   128%     -  649s
H    0     0                    -1.80886e+08 5.1268e+07   128%     -  649s
     0     0 5.1268e+07    0  437 -1.809e+08 5.1268e+07   128%     -  677s
     0     0 5.1023e+07    0  455 -1.809e+08 5.1023e+07   128%     -  699s
     0     0 5.0734e+07    0  444 -1.809e+08 5.0734e+07   128%     -  711s
     0     0 5.0732e+07    0  442 -1.809e+08 5.0732e+07   128%     -  712s
     0     0 5.0732e+07    0  439 -1.809e+08 5.0732e+07   128%     -  713s
     0     0 4.5018e+07    0  527 -1.809e+08 4.5018e+07   125%     -  780s
     0     0 4.4828e+07    0  507 -1.809e+08 4.4828e+07   125%     -  794s
     0     0 4.4825e+07    0  508 -1.809e+08 4.4825e+07   125%     -  796s
     0     0 3.5780e+07    0  500 -1.809e+08 3.5780e+07   120%     -  830s
     0     0 3.5706e+07    0  546 -1.809e+08 3.5706e+07   120%     -  850s
     0     0 3.5691e+07    0  528 -1.809e+08 3.5691e+07   120%     -  853s
     0     0 3.5691e+07    0  533 -1.809e+08 3.5691e+07   120%     -  853s
     0     0 2.9580e+07    0  562 -1.809e+08 2.9580e+07   116%     -  891s
     0     0 2.8688e+07    0  518 -1.809e+08 2.8688e+07   116%     -  905s
     0     0 2.8688e+07    0  527 -1.809e+08 2.8688e+07   116%     -  910s
     0     0 2.8688e+07    0  528 -1.809e+08 2.8688e+07   116%     -  913s
     0     0 2.6669e+07    0  575 -1.809e+08 2.6669e+07   115%     -  956s
H    0     0                    -1.80068e+08 2.6665e+07   115%     -  997s
H    0     0                    -1.80066e+08 2.6665e+07   115%     -  998s
H    0     0                    -1.79981e+08 2.6665e+07   115%     - 1016s
     0     0 2.6564e+07    0  569 -1.800e+08 2.6564e+07   115%     - 1025s
     0     0 2.6548e+07    0  577 -1.800e+08 2.6548e+07   115%     - 1030s
     0     0 2.6547e+07    0  567 -1.800e+08 2.6547e+07   115%     - 1031s
     0     0 2.4057e+07    0  592 -1.800e+08 2.4057e+07   113%     - 1071s
     0     0 2.3883e+07    0  607 -1.800e+08 2.3883e+07   113%     - 1094s
     0     0 2.3880e+07    0  599 -1.800e+08 2.3880e+07   113%     - 1097s
     0     0 2.1320e+07    0  654 -1.800e+08 2.1320e+07   112%     - 1134s
     0     0 2.0622e+07    0  610 -1.800e+08 2.0622e+07   111%     - 1163s
     0     0 2.0603e+07    0  619 -1.800e+08 2.0603e+07   111%     - 1169s
     0     0 2.0602e+07    0  625 -1.800e+08 2.0602e+07   111%     - 1171s
     0     0 1.3993e+07    0  624 -1.800e+08 1.3993e+07   108%     - 1209s
     0     0 1.3274e+07    0  598 -1.800e+08 1.3274e+07   107%     - 1240s
     0     0 1.3124e+07    0  617 -1.800e+08 1.3124e+07   107%     - 1254s
     0     0 1.3118e+07    0  625 -1.800e+08 1.3118e+07   107%     - 1260s
     0     0 3629394.32    0  578 -1.800e+08 3629394.32   102%     - 1302s
     0     0 257505.352    0  601 -1.800e+08 257505.352   100%     - 1334s
     0     0 146974.285    0  608 -1.800e+08 146974.285   100%     - 1344s
     0     0 -161694.09    0  591 -1.800e+08 -161694.09   100%     - 1355s
     0     0 -172045.63    0  598 -1.800e+08 -172045.63   100%     - 1357s
     0     0 -7741637.9    0  568 -1.800e+08 -7741637.9  95.7%     - 1398s
     0     0 -8842976.3    0  591 -1.800e+08 -8842976.3  95.1%     - 1422s
     0     0 -9083821.5    0  612 -1.800e+08 -9083821.5  95.0%     - 1433s
     0     0 -9097710.4    0  632 -1.800e+08 -9097710.4  94.9%     - 1436s
     0     0 -1.760e+07    0  632 -1.800e+08 -1.760e+07  90.2%     - 1480s
     0     0 -1.823e+07    0  648 -1.800e+08 -1.823e+07  89.9%     - 1504s
     0     0 -1.858e+07    0  674 -1.800e+08 -1.858e+07  89.7%     - 1526s
     0     0 -1.865e+07    0  665 -1.800e+08 -1.865e+07  89.6%     - 1534s
     0     0 -1.869e+07    0  671 -1.800e+08 -1.869e+07  89.6%     - 1544s
     0     0 -1.869e+07    0  681 -1.800e+08 -1.869e+07  89.6%     - 1547s
     0     0 -2.565e+07    0  707 -1.800e+08 -2.565e+07  85.7%     - 1633s
     0     0 -2.630e+07    0  704 -1.800e+08 -2.630e+07  85.4%     - 1666s
     0     0 -2.636e+07    0  723 -1.800e+08 -2.636e+07  85.4%     - 1672s
     0     0 -2.636e+07    0  730 -1.800e+08 -2.636e+07  85.4%     - 1674s
     0     0 -3.347e+07    0  653 -1.800e+08 -3.347e+07  81.4%     - 1710s
     0     0 -3.474e+07    0  716 -1.800e+08 -3.474e+07  80.7%     - 1737s
     0     0 -3.488e+07    0  727 -1.800e+08 -3.488e+07  80.6%     - 1746s
     0     0 -3.490e+07    0  725 -1.800e+08 -3.490e+07  80.6%     - 1750s
     0     0 -4.636e+07    0  633 -1.800e+08 -4.636e+07  74.2%     - 1787s
     0     0 -4.793e+07    0  696 -1.800e+08 -4.793e+07  73.4%     - 1809s
     0     0 -4.807e+07    0  729 -1.800e+08 -4.807e+07  73.3%     - 1817s
     0     0 -4.810e+07    0  713 -1.800e+08 -4.810e+07  73.3%     - 1823s
     0     0 -5.687e+07    0  688 -1.800e+08 -5.687e+07  68.4%     - 1861s
     0     0 -5.879e+07    0  718 -1.800e+08 -5.879e+07  67.3%     - 1891s
     0     0 -5.916e+07    0  725 -1.800e+08 -5.916e+07  67.1%     - 1904s
     0     0 -5.920e+07    0  769 -1.800e+08 -5.920e+07  67.1%     - 1911s
     0     0 -7.783e+07    0  648 -1.800e+08 -7.783e+07  56.8%     - 1949s
     0     0 -7.913e+07    0  694 -1.800e+08 -7.913e+07  56.0%     - 1969s
     0     0 -7.938e+07    0  690 -1.800e+08 -7.938e+07  55.9%     - 1982s
     0     0 -7.950e+07    0  732 -1.800e+08 -7.950e+07  55.8%     - 1989s
     0     0 -7.953e+07    0  716 -1.800e+08 -7.953e+07  55.8%     - 1993s
     0     0 -9.356e+07    0  684 -1.800e+08 -9.356e+07  48.0%     - 2040s
H    0     0                    -1.79980e+08 -9.380e+07  47.9%     - 2051s
H    0     0                    -1.79980e+08 -9.380e+07  47.9%     - 2080s
     0     0 -9.733e+07    0  682 -1.800e+08 -9.733e+07  45.9%     - 2162s
     0     0 -9.787e+07    0  682 -1.800e+08 -9.787e+07  45.6%     - 2170s
     0     0 -9.796e+07    0  701 -1.800e+08 -9.796e+07  45.6%     - 2176s
     0     0 -9.799e+07    0  705 -1.800e+08 -9.799e+07  45.6%     - 2180s
     0     0 -1.110e+08    0  655 -1.800e+08 -1.110e+08  38.3%     - 2210s
     0     0 -1.132e+08    0  681 -1.800e+08 -1.132e+08  37.1%     - 2226s
     0     0 -1.134e+08    0  686 -1.800e+08 -1.134e+08  37.0%     - 2230s
     0     0 -1.136e+08    0  699 -1.800e+08 -1.136e+08  36.9%     - 2236s
     0     0 -1.137e+08    0  696 -1.800e+08 -1.137e+08  36.8%     - 2239s
     0     0 -1.137e+08    0  698 -1.800e+08 -1.137e+08  36.8%     - 2240s
     0     0 -1.211e+08    0  592 -1.800e+08 -1.211e+08  32.7%     - 2257s
     0     0 -1.224e+08    0  655 -1.800e+08 -1.224e+08  32.0%     - 2268s
     0     0 -1.226e+08    0  661 -1.800e+08 -1.226e+08  31.9%     - 2273s
     0     0 -1.227e+08    0  680 -1.800e+08 -1.227e+08  31.9%     - 2276s
     0     0 -1.349e+08    0  663 -1.800e+08 -1.349e+08  25.1%     - 2292s
     0     0 -1.363e+08    0  663 -1.800e+08 -1.363e+08  24.2%     - 2299s
     0     0 -1.365e+08    0  680 -1.800e+08 -1.365e+08  24.2%     - 2302s
     0     0 -1.365e+08    0  720 -1.800e+08 -1.365e+08  24.1%     - 2304s
     0     0 -1.385e+08    0  681 -1.800e+08 -1.385e+08  23.1%     - 2311s
     0     0 -1.388e+08    0  688 -1.800e+08 -1.388e+08  22.9%     - 2317s
     0     0 -1.389e+08    0  690 -1.800e+08 -1.389e+08  22.8%     - 2320s
     0     0 -1.404e+08    0  669 -1.800e+08 -1.404e+08  22.0%     - 2326s
     0     0 -1.413e+08    0  665 -1.800e+08 -1.413e+08  21.5%     - 2331s
     0     0 -1.413e+08    0  652 -1.800e+08 -1.413e+08  21.5%     - 2332s
     0     0 -1.432e+08    0  678 -1.800e+08 -1.432e+08  20.4%     - 2338s
     0     0 -1.433e+08    0  697 -1.800e+08 -1.433e+08  20.4%     - 2342s
     0     0 -1.435e+08    0  705 -1.800e+08 -1.435e+08  20.3%     - 2343s
     0     0 -1.435e+08    0  703 -1.800e+08 -1.435e+08  20.3%     - 2344s
     0     0 -1.482e+08    0  669 -1.800e+08 -1.482e+08  17.7%     - 2351s
     0     0 -1.488e+08    0  665 -1.800e+08 -1.488e+08  17.3%     - 2355s
     0     0 -1.488e+08    0  675 -1.800e+08 -1.488e+08  17.3%     - 2357s
     0     0 -1.511e+08    0  627 -1.800e+08 -1.511e+08  16.0%     - 2364s
     0     0 -1.513e+08    0  645 -1.800e+08 -1.513e+08  15.9%     - 2368s
     0     0 -1.514e+08    0  662 -1.800e+08 -1.514e+08  15.9%     - 2369s
     0     0 -1.520e+08    0  635 -1.800e+08 -1.520e+08  15.5%     - 2374s
     0     0 -1.523e+08    0  651 -1.800e+08 -1.523e+08  15.4%     - 2378s
     0     0 -1.523e+08    0  624 -1.800e+08 -1.523e+08  15.4%     - 2379s
     0     0 -1.530e+08    0  635 -1.800e+08 -1.530e+08  15.0%     - 2382s
     0     0 -1.531e+08    0  655 -1.800e+08 -1.531e+08  14.9%     - 2386s
     0     0 -1.540e+08    0  654 -1.800e+08 -1.540e+08  14.4%     - 2389s
     0     0 -1.540e+08    0  660 -1.800e+08 -1.540e+08  14.4%     - 2394s
     0     0 -1.543e+08    0  644 -1.800e+08 -1.543e+08  14.3%     - 2399s
     0     0 -1.543e+08    0  644 -1.800e+08 -1.543e+08  14.3%     - 2404s
H    0     0                    -1.79979e+08 -1.547e+08  14.1%     - 2451s
     0     2 -1.547e+08    0  644 -1.800e+08 -1.547e+08  14.1%     - 2453s
     3     8 -1.557e+08    2  615 -1.800e+08 -1.557e+08  13.5%   788 2456s
    11    18 -1.559e+08    4  624 -1.800e+08 -1.557e+08  13.5%   776 2461s
    17    24 -1.561e+08    5  632 -1.800e+08 -1.557e+08  13.5%   800 2465s
    30    39 -1.568e+08    7  625 -1.800e+08 -1.557e+08  13.5%   831 2472s
    38    47 -1.579e+08    8  626 -1.800e+08 -1.557e+08  13.5%   806 2475s
    52    60 -1.608e+08   10  559 -1.800e+08 -1.557e+08  13.5%   804 2481s
    67    77 -1.615e+08   15  534 -1.800e+08 -1.557e+08  13.5%   756 2486s
    84    94 -1.629e+08   18  517 -1.800e+08 -1.557e+08  13.5%   702 2490s
   105   112 -1.674e+08   21  421 -1.800e+08 -1.557e+08  13.5%   690 2496s
   122   137 -1.682e+08   22  392 -1.800e+08 -1.557e+08  13.5%   663 2500s
   162   179 -1.738e+08   26  280 -1.800e+08 -1.557e+08  13.5%   592 2506s
   193   210 -1.733e+08   32  312 -1.800e+08 -1.557e+08  13.5%   547 2510s
   226   250 -1.737e+08   40  263 -1.800e+08 -1.557e+08  13.5%   510 2515s
   268   305 -1.754e+08   49  180 -1.800e+08 -1.557e+08  13.5%   474 2520s
   385   413 -1.778e+08   73  161 -1.800e+08 -1.557e+08  13.5%   369 2527s
   425   439 -1.784e+08   85   92 -1.800e+08 -1.562e+08  13.2%   349 2530s
   492   479 -1.792e+08  113   62 -1.800e+08 -1.565e+08  13.1%   324 2536s
   508   492 -1.623e+08    9  594 -1.800e+08 -1.565e+08  13.1%   328 2540s
   543   514 -1.673e+08   12  525 -1.800e+08 -1.565e+08  13.1%   335 2547s
   556   528 -1.715e+08   15  469 -1.800e+08 -1.565e+08  13.1%   341 2550s
   584   560 -1.734e+08   20  396 -1.800e+08 -1.565e+08  13.1%   354 2557s
   602   585 -1.749e+08   24  389 -1.800e+08 -1.565e+08  13.1%   358 2560s
   657   653 -1.761e+08   35  352 -1.800e+08 -1.565e+08  13.1%   354 2568s
   706   673 -1.764e+08   41  340 -1.800e+08 -1.565e+08  13.1%   342 2571s
   728   710 -1.788e+08   46  284 -1.800e+08 -1.576e+08  12.4%   345 2576s
   770   740 -1.794e+08   59  218 -1.800e+08 -1.576e+08  12.4%   339 2580s
   822   763 -1.800e+08   68  200 -1.800e+08 -1.579e+08  12.2%   330 2585s
   900   825 -1.640e+08    8  544 -1.800e+08 -1.579e+08  12.2%   326 2594s
   922   840 -1.668e+08   11  519 -1.800e+08 -1.579e+08  12.2%   331 2599s
   937   861 -1.673e+08   11  536 -1.800e+08 -1.579e+08  12.2%   339 2605s
   958   884 -1.690e+08   12  504 -1.800e+08 -1.579e+08  12.2%   346 2610s
   981   910 -1.700e+08   12  490 -1.800e+08 -1.579e+08  12.2%   351 2616s
  1010   947 -1.728e+08   14  465 -1.800e+08 -1.579e+08  12.2%   354 2621s
  1048   965 -1.749e+08   19  399 -1.800e+08 -1.579e+08  12.2%   355 2628s
  1076  1001 -1.766e+08   23  390 -1.800e+08 -1.579e+08  12.2%   359 2634s
  1114  1002 -1.753e+08   23  644 -1.800e+08 -1.579e+08  12.2%   360 2672s
  1116  1003 -1.728e+08   15  347 -1.800e+08 -1.579e+08  12.2%   359 2711s
  1117  1004 -1.721e+08   28  367 -1.800e+08 -1.579e+08  12.2%   359 2761s
H 1117   953                    -1.79979e+08 -1.579e+08  12.2%   359 2777s
  1118   954 -1.681e+08   13  357 -1.800e+08 -1.579e+08  12.2%   359 2781s
  1119   954 -1.684e+08   12  339 -1.800e+08 -1.579e+08  12.2%   359 2792s
  1120   955 -1.791e+08   62  331 -1.800e+08 -1.579e+08  12.2%   358 2801s
  1121   956 -1.789e+08   57  361 -1.800e+08 -1.579e+08  12.2%   358 2809s
  1122   956 -1.796e+08   63  359 -1.800e+08 -1.579e+08  12.2%   358 2817s
  1123   957 -1.716e+08   16  360 -1.800e+08 -1.579e+08  12.2%   357 2825s
  1124   958 -1.666e+08   10  404 -1.800e+08 -1.579e+08  12.2%   357 2832s
  1125   958 -1.782e+08   36  388 -1.800e+08 -1.579e+08  12.2%   357 2838s
  1126   959 -1.711e+08   13  395 -1.800e+08 -1.579e+08  12.2%   356 2844s
  1127   960 -1.774e+08   17  396 -1.800e+08 -1.591e+08  11.6%   356 2851s
  1128   960 -1.652e+08    8  399 -1.800e+08 -1.608e+08  10.7%   356 2855s
  1129   961 -1.772e+08   69  386 -1.800e+08 -1.616e+08  10.2%   355 2860s
  1131   962 -1.712e+08   10  462 -1.800e+08 -1.634e+08  9.22%   355 2866s
  1133   964 -1.636e+08    6  495 -1.800e+08 -1.636e+08  9.07%   354 2870s
  1134   964 -1.783e+08   44  495 -1.800e+08 -1.637e+08  9.07%   354 2875s
  1135   965 -1.763e+08   61  342 -1.800e+08 -1.750e+08  2.79%   353 2889s
  1136   966 -1.750e+08   12  336 -1.800e+08 -1.750e+08  2.79%   353 2895s
  1138   967 -1.750e+08   17  345 -1.800e+08 -1.750e+08  2.79%   353 2901s
  1139   968 -1.779e+08   82  238 -1.800e+08 -1.779e+08  1.18%   352 2916s
  1142   970 -1.785e+08   32  155 -1.800e+08 -1.785e+08  0.82%   351 2925s
  1145   972 -1.787e+08   42  208 -1.800e+08 -1.787e+08  0.72%   350 2931s
H 1149   927                    -1.79979e+08 -1.788e+08  0.67%   435 2962s

Cutting planes:
  Gomory: 7
  Cover: 7
  Implied bound: 5
  Projected implied bound: 111
  MIR: 145
  Flow cover: 32
  RLT: 7
  Relax-and-lift: 24

Explored 1149 nodes (789564 simplex iterations) in 2962.91 seconds (943.85 work units)
Thread count was 8 (of 8 available processors)

Solution count 10: -1.79979e+08 -1.79979e+08 -1.79979e+08 ... -1.81501e+08
No other solutions better than -1.79979e+08

Optimal solution found (tolerance 1.00e-04)
Best objective -1.799791811188e+08, best bound -1.799791811188e+08, gap 0.0000%
